NAME 
ROWS
 N  OBJ
 L  R0      
 E  R1      
 E  R2      
 E  R3      
 E  R4      
 E  R5      
 E  R6      
 E  R7      
 E  R8      
 E  R9      
 E  R10     
 E  R11     
 E  R12     
 E  R13     
 E  R14     
 E  R15     
 E  R16     
 E  R17     
 E  R18     
 E  R19     
 E  R20     
COLUMNS
    MARKER    'MARKER'                 'INTORG'
    I0(5)     OBJ       59
    I0(5)     R0        -174
    I0(5)     R3        8
    I0(5)     R4        19
    I0(5)     R6        9
    I0(5)     R20       1
    I1(4)     OBJ       105
    I1(4)     R0        183
    I1(4)     R1        2
    I1(4)     R5        18
    I1(4)     R20       1
    I2(9)     OBJ       -27
    I2(9)     R0        181
    I2(9)     R1        1
    I2(9)     R2        18
    I2(9)     R3        16
    I2(9)     R4        19
    I2(9)     R5        2
    I2(9)     R7        8
    I2(9)     R8        1
    I2(9)     R20       1
    I3(5)     OBJ       168
    I3(5)     R0        -33
    I3(5)     R1        7
    I3(5)     R2        6
    I3(5)     R3        11
    I3(5)     R20       1
    I4(5)     OBJ       3
    I4(5)     R0        148
    I4(5)     R1        18
    I4(5)     R4        17
    I4(5)     R7        10
    I4(5)     R20       1
    I5(7)     OBJ       27
    I5(7)     R0        11
    I5(7)     R2        2
    I5(7)     R3        13
    I5(7)     R6        15
    I5(7)     R7        -1
    I5(7)     R8        18
    I5(7)     R20       1
    I6(8)     OBJ       -200
    I6(8)     R0        25
    I6(8)     R1        15
    I6(8)     R2        15
    I6(8)     R3        11
    I6(8)     R4        19
    I6(8)     R5        16
    I6(8)     R8        16
    I6(8)     R20       1
    I7(6)     OBJ       95
    I7(6)     R0        146
    I7(6)     R2        4
    I7(6)     R4        10
    I7(6)     R6        18
    I7(6)     R7        8
    I7(6)     R20       1
    MARKER    'MARKER'                 'INTEND'
    C8(16)    OBJ       -1
    C8(16)    R0        3
    C8(16)    R1        9
    C8(16)    R2        5
    C8(16)    R3        8
    C8(16)    R4        5
    C8(16)    R5        2
    C8(16)    R6        1
    C8(16)    R8        1
    C8(16)    R9        7
    C8(16)    R10       2
    C8(16)    R11       2
    C8(16)    R12       5
    C8(16)    R14       13
    C8(16)    R15       18
    C8(16)    R16       17
    C8(16)    R18       1
    C9(13)    OBJ       3
    C9(13)    R0        -3
    C9(13)    R1        18
    C9(13)    R4        -1
    C9(13)    R5        5
    C9(13)    R6        -1
    C9(13)    R8        8
    C9(13)    R9        6
    C9(13)    R10       7
    C9(13)    R11       13
    C9(13)    R13       1
    C9(13)    R14       5
    C9(13)    R17       5
    C9(13)    R18       6
    C10(12)   OBJ       -4
    C10(12)   R0        -2
    C10(12)   R2        15
    C10(12)   R4        8
    C10(12)   R5        12
    C10(12)   R6        19
    C10(12)   R8        15
    C10(12)   R9        12
    C10(12)   R11       10
    C10(12)   R13       1
    C10(12)   R15       13
    C10(12)   R16       12
    C10(12)   R19       8
    C11(9)    OBJ       -5
    C11(9)    R0        -9
    C11(9)    R2        -1
    C11(9)    R3        11
    C11(9)    R4        15
    C11(9)    R6        3
    C11(9)    R10       3
    C11(9)    R13       9
    C11(9)    R14       7
    C11(9)    R19       1
    C12(6)    OBJ       -5
    C12(6)    R0        9
    C12(6)    R1        6
    C12(6)    R6        3
    C12(6)    R7        19
    C12(6)    R8        11
    C12(6)    R18       19
    C13(9)    OBJ       8
    C13(9)    R0        7
    C13(9)    R1        10
    C13(9)    R3        19
    C13(9)    R7        15
    C13(9)    R8        13
    C13(9)    R11       11
    C13(9)    R12       7
    C13(9)    R14       17
    C13(9)    R18       14
    C14(12)   OBJ       -3
    C14(12)   R0        -9
    C14(12)   R1        12
    C14(12)   R3        7
    C14(12)   R4        11
    C14(12)   R6        4
    C14(12)   R7        1
    C14(12)   R8        3
    C14(12)   R9        9
    C14(12)   R10       4
    C14(12)   R15       5
    C14(12)   R18       6
    C14(12)   R19       17
    C15(8)    OBJ       -2
    C15(8)    R0        4
    C15(8)    R4        10
    C15(8)    R5        18
    C15(8)    R11       4
    C15(8)    R13       12
    C15(8)    R16       17
    C15(8)    R17       12
    C15(8)    R19       14
    C16(9)    OBJ       4
    C16(9)    R0        -10
    C16(9)    R6        -1
    C16(9)    R7        1
    C16(9)    R9        10
    C16(9)    R11       9
    C16(9)    R12       -1
    C16(9)    R13       16
    C16(9)    R18       19
    C16(9)    R19       6
    C17(15)   OBJ       8
    C17(15)   R0        -7
    C17(15)   R2        18
    C17(15)   R3        18
    C17(15)   R5        2
    C17(15)   R8        4
    C17(15)   R9        4
    C17(15)   R10       14
    C17(15)   R11       3
    C17(15)   R12       5
    C17(15)   R13       16
    C17(15)   R14       19
    C17(15)   R15       5
    C17(15)   R16       16
    C17(15)   R17       19
    C17(15)   R19       4
    C18(9)    OBJ       -8
    C18(9)    R0        -3
    C18(9)    R4        10
    C18(9)    R5        17
    C18(9)    R7        14
    C18(9)    R9        11
    C18(9)    R13       7
    C18(9)    R16       17
    C18(9)    R17       3
    C18(9)    R18       4
    C19(13)   OBJ       4
    C19(13)   R0        -4
    C19(13)   R2        4
    C19(13)   R3        10
    C19(13)   R4        13
    C19(13)   R5        2
    C19(13)   R7        7
    C19(13)   R11       9
    C19(13)   R12       4
    C19(13)   R13       17
    C19(13)   R14       15
    C19(13)   R17       5
    C19(13)   R18       -1
    C19(13)   R19       4
    C20(1)    R1        1
    C21(1)    R2        1
    C22(1)    R3        1
    C23(1)    R4        1
    C24(1)    R5        1
    C25(1)    R6        1
    C26(1)    R7        1
    C27(1)    R8        1
    C28(1)    R9        1
    C29(1)    R10       1
    C30(1)    R11       1
    C31(1)    R12       1
    C32(1)    R13       1
    C33(1)    R14       1
    C34(1)    R15       1
    C35(1)    R16       1
    C36(1)    R17       1
    C37(1)    R18       1
    C38(1)    R19       1
    C39(1)    R20       1
RHS
    RHS1      R0        65.1835948005374
    RHS1      R1        89
    RHS1      R2        84
    RHS1      R3        66
    RHS1      R4        60
    RHS1      R5        54
    RHS1      R6        98
    RHS1      R7        69
    RHS1      R8        63
    RHS1      R9        61
    RHS1      R10       55
    RHS1      R11       79
    RHS1      R12       94
    RHS1      R13       64
    RHS1      R14       68
    RHS1      R15       86
    RHS1      R16       64
    RHS1      R17       65
    RHS1      R18       69
    RHS1      R19       75
    RHS1      R20       2
BOUNDS
 UP BND1      I0(5)     2
 UP BND1      I1(4)     2
 UP BND1      I2(9)     2
 UP BND1      I3(5)     2
 UP BND1      I4(5)     2
 UP BND1      I5(7)     2
 UP BND1      I6(8)     2
 UP BND1      I7(6)     2
ENDATA
